(declare-fun var0 () String)
(declare-fun var1 () String)
(declare-fun var2 () String)
(declare-fun var3 () String)
(declare-fun var4 () String)
(declare-fun var5 () String)
(declare-fun var6 () String)
(declare-fun var7 () String)
(declare-fun var8 () String)
(declare-fun var9 () String)
(declare-fun var10 () String)
(declare-fun var11 () String)
(assert (= var0 (Concat "BdW`G" (Concat var1 (Concat var2 (Concat var3 (Concat var4 (Concat var5 ""))))))))
(assert (= var6 (Concat ",)!T2" (Concat var7 (Concat var8 (Concat var9 (Concat var10 (Concat var11 ""))))))))
(assert (= var0 var6))
(check-sat)